100 1471
0 5
0 9
0 16
0 19
0 20
0 29
0 33
0 37
0 42
0 47
0 49
0 54
0 55
0 57
0 62
0 64
0 65
0 68
0 69
0 70
0 72
0 73
0 75
0 90
0 92
0 93
0 95
0 98
1 3
1 7
1 8
1 10
1 12
1 14
1 19
1 21
1 22
1 23
1 28
1 29
1 32
1 35
1 40
1 42
1 44
1 48
1 49
1 54
1 62
1 63
1 65
1 67
1 69
1 72
1 75
1 76
1 78
1 79
1 82
1 84
1 86
1 88
1 89
1 93
1 94
1 97
1 98
2 5
2 6
2 11
2 12
2 13
2 14
2 16
2 19
2 24
2 29
2 30
2 34
2 46
2 49
2 56
2 64
2 66
2 67
2 71
2 72
2 78
2 81
2 87
2 88
2 89
2 92
2 93
2 95
2 97
2 99
3 4
3 5
3 6
3 7
3 15
3 16
3 17
3 18
3 20
3 25
3 26
3 28
3 29
3 33
3 34
3 35
3 37
3 38
3 43
3 47
3 48
3 51
3 56
3 58
3 69
3 72
3 75
3 82
3 85
3 87
3 88
3 89
3 91
3 92
3 93
3 94
3 97
4 6
4 7
4 13
4 15
4 17
4 18
4 19
4 22
4 28
4 31
4 34
4 41
4 52
4 58
4 72
4 77
4 87
4 89
4 96
5 11
5 14
5 15
5 17
5 23
5 25
5 31
5 33
5 40
5 42
5 43
5 44
5 46
5 47
5 48
5 53
5 63
5 66
5 68
5 75
5 78
5 82
5 88
5 91
5 93
5 98
6 11
6 16
6 17
6 18
6 23
6 25
6 31
6 38
6 43
6 45
6 47
6 52
6 56
6 57
6 59
6 63
6 67
6 73
6 77
6 82
6 89
6 96
7 8
7 9
7 20
7 23
7 24
7 36
7 41
7 46
7 47
7 51
7 52
7 61
7 69
7 71
7 72
7 74
7 76
7 84
7 88
7 97
8 12
8 15
8 16
8 19
8 26
8 34
8 35
8 39
8 40
8 41
8 42
8 47
8 48
8 51
8 53
8 57
8 64
8 68
8 73
8 74
8 82
8 87
8 88
8 89
8 91
8 92
8 96
8 98
9 12
9 17
9 20
9 25
9 34
9 35
9 39
9 40
9 43
9 46
9 51
9 60
9 62
9 63
9 64
9 66
9 67
9 68
9 72
9 74
9 75
9 82
9 83
9 85
9 88
9 91
9 92
9 95
9 96
10 12
10 14
10 16
10 18
10 29
10 30
10 31
10 32
10 33
10 43
10 47
10 51
10 52
10 53
10 55
10 57
10 59
10 62
10 64
10 67
10 70
10 78
10 80
10 81
10 85
10 90
10 91
10 94
10 97
11 13
11 14
11 15
11 16
11 18
11 19
11 20
11 22
11 26
11 28
11 31
11 33
11 34
11 36
11 38
11 40
11 45
11 49
11 50
11 51
11 55
11 59
11 63
11 65
11 67
11 68
11 72
11 74
11 79
11 81
11 85
11 89
11 91
11 96
11 98
11 99
12 16
12 18
12 23
12 27
12 28
12 32
12 41
12 43
12 45
12 46
12 47
12 50
12 51
12 57
12 65
12 69
12 74
12 75
12 86
12 88
12 91
12 95
12 96
12 98
13 15
13 33
13 34
13 35
13 36
13 42
13 43
13 48
13 52
13 54
13 58
13 59
13 60
13 61
13 66
13 75
13 82
13 87
13 89
13 93
13 95
13 96
13 99
14 16
14 17
14 19
14 23
14 24
14 36
14 44
14 46
14 47
14 52
14 53
14 55
14 58
14 63
14 68
14 71
14 74
14 75
14 76
14 77
14 79
14 81
14 83
14 90
14 91
14 94
14 97
14 98
15 17
15 18
15 19
15 21
15 23
15 27
15 28
15 31
15 34
15 35
15 42
15 43
15 46
15 47
15 48
15 53
15 54
15 56
15 61
15 65
15 69
15 71
15 72
15 73
15 76
15 78
15 83
15 84
15 87
15 88
15 89
15 90
15 91
15 93
16 18
16 20
16 21
16 22
16 23
16 26
16 27
16 29
16 33
16 34
16 37
16 38
16 43
16 49
16 51
16 53
16 54
16 61
16 63
16 67
16 68
16 69
16 73
16 77
16 82
16 83
16 84
16 89
16 90
16 96
17 19
17 26
17 29
17 35
17 37
17 39
17 41
17 45
17 52
17 55
17 56
17 66
17 69
17 75
17 76
17 79
17 80
17 81
17 83
17 85
17 89
17 94
17 95
17 98
17 99
18 19
18 20
18 36
18 47
18 48
18 50
18 52
18 55
18 58
18 61
18 69
18 71
18 72
18 77
18 80
18 88
18 93
18 95
19 24
19 25
19 29
19 31
19 33
19 35
19 36
19 39
19 42
19 44
19 50
19 52
19 56
19 61
19 66
19 70
19 73
19 82
19 93
19 96
20 21
20 23
20 26
20 27
20 30
20 32
20 34
20 37
20 39
20 43
20 44
20 47
20 50
20 57
20 59
20 60
20 66
20 67
20 68
20 72
20 94
20 96
20 98
21 23
21 26
21 31
21 33
21 48
21 52
21 61
21 62
21 63
21 65
21 66
21 67
21 70
21 71
21 72
21 83
21 84
21 93
22 25
22 29
22 31
22 38
22 39
22 44
22 48
22 50
22 51
22 62
22 63
22 65
22 67
22 68
22 74
22 75
22 77
22 78
22 84
22 88
22 90
22 93
22 94
22 96
22 98
22 99
23 24
23 25
23 38
23 39
23 42
23 55
23 57
23 59
23 65
23 66
23 68
23 73
23 78
23 88
23 90
23 94
23 95
23 97
24 26
24 33
24 37
24 40
24 41
24 49
24 50
24 51
24 52
24 54
24 57
24 62
24 63
24 65
24 67
24 71
24 76
24 77
24 78
24 83
24 85
24 91
24 95
24 97
24 98
24 99
25 30
25 34
25 35
25 40
25 43
25 46
25 47
25 50
25 52
25 59
25 79
25 81
25 87
25 88
25 95
25 97
25 98
26 28
26 29
26 41
26 44
26 51
26 52
26 59
26 62
26 63
26 74
26 75
26 76
26 78
26 79
26 81
26 85
26 90
26 91
26 92
26 93
26 96
27 32
27 33
27 35
27 36
27 40
27 41
27 42
27 49
27 51
27 58
27 60
27 66
27 67
27 71
27 72
27 74
27 78
27 79
27 84
27 85
27 87
27 88
27 89
27 90
27 91
28 31
28 35
28 39
28 43
28 47
28 49
28 55
28 58
28 63
28 66
28 67
28 73
28 81
28 82
28 83
28 89
28 90
28 97
29 32
29 42
29 49
29 51
29 52
29 54
29 55
29 61
29 65
29 70
29 72
29 84
29 86
29 87
29 88
29 92
29 94
29 95
30 35
30 44
30 46
30 47
30 48
30 49
30 51
30 53
30 54
30 56
30 57
30 59
30 64
30 65
30 71
30 72
30 73
30 76
30 77
30 79
30 80
30 82
30 83
30 89
30 95
31 34
31 37
31 39
31 41
31 44
31 46
31 53
31 54
31 55
31 59
31 61
31 63
31 64
31 75
31 77
31 82
31 84
31 87
31 89
31 91
31 96
31 98
31 99
32 34
32 36
32 38
32 45
32 53
32 56
32 59
32 60
32 61
32 73
32 74
32 80
32 90
32 91
33 34
33 41
33 43
33 44
33 48
33 49
33 54
33 58
33 59
33 60
33 61
33 66
33 69
33 83
33 86
33 87
33 95
33 96
33 98
34 37
34 46
34 48
34 52
34 53
34 66
34 68
34 69
34 71
34 74
34 77
34 81
34 84
34 87
34 91
34 95
34 97
35 36
35 38
35 39
35 42
35 43
35 44
35 47
35 52
35 56
35 61
35 75
35 76
35 80
35 86
35 94
35 97
36 37
36 38
36 39
36 43
36 47
36 55
36 59
36 62
36 64
36 65
36 76
36 81
36 82
36 85
36 87
36 99
37 38
37 44
37 45
37 56
37 59
37 61
37 66
37 67
37 75
37 77
37 79
37 81
37 85
37 86
37 90
37 97
38 40
38 41
38 43
38 44
38 45
38 53
38 54
38 57
38 58
38 65
38 66
38 67
38 70
38 72
38 73
38 75
38 79
38 80
38 84
38 87
38 91
38 95
38 97
39 41
39 43
39 47
39 48
39 52
39 54
39 55
39 59
39 61
39 66
39 77
39 82
39 85
39 86
39 89
39 98
39 99
40 51
40 57
40 59
40 67
40 74
40 85
40 86
40 93
40 94
41 42
41 46
41 47
41 49
41 50
41 51
41 53
41 56
41 58
41 60
41 61
41 62
41 68
41 73
41 82
41 85
41 89
41 92
41 93
42 47
42 50
42 51
42 54
42 69
42 78
42 79
42 81
42 84
42 85
42 86
42 95
43 48
43 49
43 50
43 56
43 62
43 63
43 65
43 69
43 79
43 81
43 83
43 87
43 89
43 95
43 96
44 48
44 56
44 57
44 58
44 59
44 65
44 68
44 72
44 75
44 77
44 79
44 90
44 97
45 48
45 49
45 50
45 51
45 52
45 54
45 59
45 60
45 62
45 64
45 66
45 70
45 73
45 75
45 83
45 86
45 88
45 91
45 93
45 95
46 51
46 52
46 59
46 62
46 72
46 74
46 76
46 78
46 79
46 86
46 89
46 91
46 93
46 95
47 48
47 49
47 51
47 52
47 58
47 59
47 64
47 68
47 71
47 72
47 73
47 75
47 77
47 82
47 86
47 88
47 90
47 91
47 94
47 97
48 51
48 53
48 58
48 59
48 61
48 66
48 70
48 72
48 73
48 74
48 83
48 84
48 91
48 93
48 94
48 95
48 96
49 55
49 56
49 57
49 67
49 69
49 75
49 78
49 81
49 85
49 86
49 87
49 92
49 93
49 94
49 95
49 97
49 99
50 52
50 57
50 58
50 59
50 60
50 61
50 64
50 74
50 76
50 77
50 81
50 85
50 90
50 91
50 94
51 53
51 56
51 57
51 59
51 63
51 64
51 66
51 69
51 77
51 79
51 85
51 90
51 91
51 93
51 94
51 95
51 98
51 99
52 60
52 61
52 70
52 72
52 74
52 75
52 83
52 84
52 90
52 94
53 57
53 59
53 64
53 67
53 70
53 73
53 75
53 76
53 81
53 84
53 85
53 86
53 87
53 89
53 90
53 92
54 58
54 64
54 70
54 73
54 76
54 77
54 88
54 90
54 91
54 94
54 95
54 96
55 61
55 67
55 70
55 71
55 73
55 75
55 76
55 78
55 79
55 84
55 90
55 95
55 98
56 59
56 60
56 61
56 68
56 71
56 74
56 77
56 81
56 84
56 87
56 89
56 91
56 92
56 93
57 61
57 63
57 68
57 71
57 73
57 77
57 78
57 81
57 84
57 85
57 86
57 88
57 90
57 91
57 92
58 60
58 64
58 69
58 74
58 75
58 77
58 81
58 82
58 83
58 84
58 91
58 98
59 65
59 67
59 68
59 72
59 74
59 76
59 77
59 79
59 82
59 88
59 92
59 98
60 62
60 64
60 65
60 66
60 68
60 72
60 73
60 75
60 78
60 82
60 84
60 86
60 88
60 89
60 93
60 96
60 97
61 64
61 74
61 75
61 78
61 81
61 84
61 86
61 89
61 94
61 99
62 69
62 72
62 74
62 75
62 84
62 87
62 89
62 96
62 98
63 64
63 70
63 73
63 81
63 85
63 86
63 89
63 91
63 92
63 94
63 98
63 99
64 70
64 71
64 75
64 76
64 84
64 85
64 95
64 96
65 66
65 67
65 80
65 81
65 89
65 92
65 95
65 97
65 99
66 67
66 78
66 83
66 86
66 94
66 95
66 96
67 70
67 71
67 73
67 86
67 88
67 91
67 94
67 97
68 70
68 72
68 74
68 76
68 87
68 88
68 95
68 96
68 98
68 99
69 70
69 79
69 80
69 83
69 85
69 86
69 87
69 88
69 90
69 92
69 93
69 96
69 97
69 99
70 79
70 85
70 88
70 89
70 95
70 97
70 98
71 75
71 78
71 83
71 90
71 92
71 95
71 98
72 73
72 83
72 88
72 93
72 94
72 95
72 96
73 75
73 80
73 90
73 93
73 94
73 95
73 97
74 84
74 87
74 90
74 91
74 92
74 96
74 97
74 99
75 77
75 88
75 97
76 85
76 90
76 92
76 97
77 79
77 85
77 86
77 88
77 90
77 91
77 93
78 79
78 80
78 82
78 84
78 88
78 90
78 91
78 93
78 95
78 96
78 99
79 87
79 91
79 94
79 95
79 98
79 99
80 81
80 85
80 89
80 93
80 95
80 96
80 99
81 84
81 85
81 86
81 88
81 96
81 98
81 99
82 89
82 90
82 91
82 94
83 87
83 91
84 87
84 89
84 92
84 95
84 96
84 98
85 86
85 87
85 88
85 89
85 93
85 98
86 88
86 89
86 97
87 96
87 98
87 99
88 89
88 92
88 94
88 95
88 97
88 98
89 92
89 96
90 91
90 96
90 98
90 99
91 92
91 93
91 95
91 98
92 94
92 95
92 97
92 98
93 95
93 97
93 99
94 97
94 98
95 96
96 98
97 98
